61852773883758970705014,6,1,2,011,13,1,2,013,1,1,2,07,9,1,2,06,4,1,2,013,4,1,2,015,8,1,2,08,8,1,2,015,5,1,2,07,9,1,2,08,7,1,2,01,14,1,2,07,10,1,2,03,7,1,2,02,3,1,2,04,13,1,2,013,8,1,2,012,15,1,2,08,3,1,2,08,12,1,2,012,15,1,2,011,8,1,2,08,15,1,2,013,6,1,2,08,13,1,2,02,13,1,2,05,11,1,2,06,13,1,2,010,13,1,2,02,5,1,2,03,4,1,2,08,3,1,2,03,9,1,2,07,3,1,2,011,8,1,2,06,9,1,2,015,4,1,2,05,7,1,2,01,3,1,2,07,9,1,2,04,9,1,2,03,8,1,2,01,12,1,2,09,12,1,2,014,9,1,2,06,9,1,2,012,3,1,2,010,6,1,2,04,12,1,2,07,12,1,2,0